p edge 64 512
e 1 63
e 1 40
e 1 7
e 1 31
e 1 33
e 1 44
e 1 58
e 1 23
e 1 17
e 1 25
e 1 30
e 1 27
e 1 9
e 2 54
e 2 53
e 2 3
e 2 26
e 2 23
e 2 45
e 2 5
e 2 10
e 2 61
e 2 50
e 2 9
e 2 60
e 2 64
e 2 19
e 2 11
e 2 24
e 2 37
e 2 32
e 2 4
e 2 27
e 2 58
e 2 57
e 2 33
e 3 7
e 3 11
e 3 34
e 3 60
e 3 56
e 3 61
e 3 46
e 3 20
e 3 54
e 3 5
e 3 33
e 3 30
e 3 6
e 3 64
e 3 57
e 4 11
e 4 23
e 4 54
e 4 29
e 4 33
e 4 21
e 4 10
e 4 24
e 4 9
e 4 20
e 4 8
e 4 30
e 4 60
e 4 36
e 4 58
e 5 55
e 5 49
e 5 43
e 5 39
e 5 18
e 5 19
e 5 50
e 5 53
e 5 15
e 5 11
e 5 6
e 5 41
e 5 51
e 5 21
e 5 34
e 5 8
e 5 28
e 5 44
e 6 42
e 6 10
e 6 41
e 6 11
e 6 12
e 6 16
e 6 20
e 6 30
e 6 25
e 7 10
e 7 52
e 7 56
e 7 28
e 7 30
e 7 29
e 7 57
e 7 40
e 7 59
e 7 18
e 7 14
e 7 26
e 7 31
e 8 18
e 8 38
e 8 51
e 8 37
e 8 11
e 8 54
e 8 60
e 8 27
e 8 57
e 8 47
e 8 20
e 8 32
e 8 16
e 8 33
e 8 36
e 8 63
e 8 34
e 8 55
e 9 28
e 9 41
e 9 58
e 9 44
e 9 48
e 9 60
e 9 19
e 9 45
e 9 13
e 9 36
e 9 26
e 9 31
e 10 13
e 10 31
e 10 27
e 10 21
e 10 46
e 10 41
e 10 63
e 10 57
e 10 61
e 10 64
e 10 62
e 10 34
e 10 26
e 10 50
e 10 28
e 10 40
e 11 17
e 11 45
e 11 59
e 11 62
e 11 43
e 11 49
e 12 59
e 12 54
e 12 33
e 12 46
e 12 21
e 12 13
e 12 31
e 12 30
e 12 32
e 12 52
e 12 49
e 12 39
e 12 17
e 12 40
e 13 29
e 13 52
e 13 49
e 13 26
e 13 56
e 13 16
e 13 35
e 13 36
e 13 58
e 13 43
e 14 52
e 14 20
e 14 42
e 14 43
e 14 28
e 14 22
e 14 27
e 14 53
e 14 60
e 14 58
e 14 50
e 14 47
e 14 18
e 14 24
e 15 17
e 15 53
e 15 64
e 15 49
e 15 57
e 15 35
e 15 25
e 15 61
e 15 41
e 15 51
e 15 39
e 15 40
e 15 56
e 15 23
e 16 54
e 16 22
e 16 47
e 16 20
e 16 35
e 16 56
e 16 42
e 16 62
e 16 26
e 17 37
e 17 60
e 17 34
e 17 40
e 17 44
e 17 20
e 17 31
e 17 42
e 17 18
e 17 62
e 17 57
e 17 26
e 17 25
e 17 63
e 18 58
e 18 47
e 18 27
e 18 22
e 18 43
e 18 19
e 18 24
e 18 51
e 18 64
e 18 33
e 18 20
e 18 32
e 18 62
e 18 49
e 18 28
e 18 44
e 18 26
e 19 41
e 19 56
e 19 59
e 19 21
e 19 30
e 19 54
e 19 52
e 19 32
e 19 37
e 19 35
e 19 62
e 19 50
e 20 39
e 20 37
e 20 61
e 20 49
e 20 42
e 20 38
e 20 32
e 20 45
e 20 41
e 20 63
e 21 63
e 21 24
e 21 50
e 21 29
e 21 37
e 21 36
e 21 35
e 21 28
e 21 32
e 21 33
e 21 49
e 21 56
e 21 53
e 21 45
e 21 38
e 22 31
e 22 56
e 22 61
e 22 38
e 22 29
e 22 55
e 22 37
e 22 44
e 22 35
e 22 51
e 22 60
e 22 28
e 22 58
e 23 37
e 23 63
e 23 32
e 23 34
e 23 59
e 23 58
e 23 52
e 23 51
e 23 27
e 23 30
e 23 50
e 23 48
e 23 29
e 24 64
e 24 45
e 24 25
e 24 39
e 24 61
e 24 30
e 24 29
e 24 58
e 24 48
e 24 53
e 24 46
e 25 54
e 25 45
e 25 59
e 25 41
e 25 49
e 25 38
e 25 33
e 25 47
e 25 53
e 25 44
e 25 35
e 26 64
e 26 48
e 26 36
e 26 39
e 26 59
e 26 58
e 26 55
e 26 63
e 26 47
e 26 45
e 26 31
e 26 27
e 27 38
e 27 49
e 27 31
e 27 60
e 27 46
e 28 49
e 28 34
e 28 53
e 28 60
e 28 48
e 28 58
e 28 64
e 28 63
e 28 52
e 28 31
e 28 55
e 28 44
e 28 51
e 28 41
e 28 43
e 29 60
e 29 48
e 29 46
e 29 41
e 29 34
e 29 54
e 29 31
e 30 51
e 30 63
e 30 50
e 30 59
e 30 37
e 30 56
e 30 40
e 30 53
e 30 48
e 31 54
e 31 44
e 31 59
e 31 61
e 31 39
e 31 55
e 32 43
e 32 34
e 32 57
e 32 63
e 32 52
e 32 48
e 32 51
e 32 59
e 32 56
e 32 39
e 33 61
e 33 49
e 33 40
e 33 54
e 33 53
e 34 47
e 34 57
e 34 45
e 35 48
e 35 36
e 36 51
e 36 55
e 36 60
e 37 55
e 37 60
e 37 59
e 37 52
e 37 47
e 37 58
e 37 56
e 37 51
e 38 58
e 38 43
e 38 41
e 38 40
e 38 54
e 38 53
e 38 61
e 38 60
e 38 63
e 39 56
e 39 60
e 39 42
e 39 50
e 39 40
e 39 43
e 39 54
e 39 51
e 39 45
e 40 51
e 40 45
e 40 53
e 40 49
e 40 61
e 40 43
e 40 63
e 41 54
e 41 46
e 41 47
e 41 55
e 41 61
e 42 53
e 42 49
e 42 56
e 43 48
e 43 51
e 43 60
e 43 58
e 43 45
e 44 51
e 44 62
e 44 63
e 44 47
e 44 55
e 44 49
e 45 56
e 45 48
e 45 60
e 45 63
e 45 62
e 46 55
e 46 49
e 46 47
e 46 63
e 46 62
e 46 61
e 47 52
e 47 54
e 47 49
e 47 63
e 47 64
e 48 60
e 48 52
e 49 64
e 49 53
e 49 60
e 49 59
e 50 62
e 50 57
e 50 64
e 51 64
e 51 62
e 51 57
e 52 56
e 52 53
e 52 57
e 53 64
e 53 63
e 53 59
e 53 62
e 54 61
e 54 55
e 54 58
e 54 57
e 55 57
e 56 64
e 56 57
e 57 64
e 58 64
e 58 63
e 60 63
e 61 64
e 61 62
